
Gurobi 10.0.0 (mac64[x86], C++) logging started Tue Aug  6 18:32:19 2024

Set parameter Username
Set parameter LogFile to value "mip1.log"
Academic license - for non-commercial use only - expires 2025-01-08
Gurobi Optimizer version 10.0.0 build v10.0.0rc2 (mac64[x86])

CPU model: Intel(R) Core(TM) i5-7360U CPU @ 2.30GHz
Thread count: 2 physical cores, 4 logical processors, using up to 4 threads

Optimize a model with 622 rows, 430 columns and 1873 nonzeros
Model fingerprint: 0x88c69ee0
Variable types: 0 continuous, 430 integer (430 binary)
Coefficient statistics:
  Matrix range     [1e+00, 1e+00]
  Objective range  [8e-01, 1e+01]
  Bounds range     [1e+00, 1e+00]
  RHS range        [1e+00, 1e+00]
Found heuristic solution: objective 1029.9853395
Presolve removed 566 rows and 352 columns
Presolve time: 0.05s
Presolved: 56 rows, 78 columns, 256 nonzeros
Found heuristic solution: objective 1147.3529956
Variable types: 0 continuous, 78 integer (78 binary)
Found heuristic solution: objective 1149.2258713

Explored 1 nodes (0 simplex iterations) in 0.06 seconds (0.00 work units)
Thread count was 4 (of 4 available processors)

Solution count 3: 1149.23 1147.35 1029.99 

Optimal solution found (tolerance 1.00e-04)
Best objective 1.149225871291e+03, best bound 1.149225871291e+03, gap 0.0000%
